20J6M/DAT/20J6MNLL-10.dat
20 6
21.3062 21.3062
30.7614 30.7614
29.0325 29.0325
28.2056 28.2056
24.7534 24.7534
23.5727 23.5727
17.5658 17.5658
19.8536 19.8536
26.2944 26.2944
30.3239 30.3239
20.0777 20.0777
27.842 27.842
29.6062 29.6062
26.7496 26.7496
24.8965 24.8965
30.3891 30.3891
20.9957 20.9957
14.3037 14.3037
29.9882 29.9882
25.874 25.874
83.732