20J6M/SOL/20J6MNLL-10.sol
solution status: optimal solution found
objective value:                               83.732
x#1#5                                               1 	(obj:0)
x#2#6                               0.999993498345329 	(obj:0)
x#3#4                                               1 	(obj:0)
x#4#1                               0.691178347562187 	(obj:0)
x#4#4                               0.308821652437813 	(obj:0)
x#5#1                              0.0903956628180368 	(obj:0)
x#5#2                               0.909604337181963 	(obj:0)
x#6#2                                               1 	(obj:0)
x#7#2                                               1 	(obj:0)
x#8#1                                               1 	(obj:0)
x#9#3                                               1 	(obj:0)
x#10#5                              0.255316763345085 	(obj:0)
x#10#6                              0.744683236654915 	(obj:0)
x#11#2                                              1 	(obj:0)
x#12#1                                              1 	(obj:0)
x#13#4                              0.844191419364863 	(obj:0)
x#13#5                              0.155808580635137 	(obj:0)
x#14#3                              0.249241110147442 	(obj:0)
x#14#5                              0.750758889852558 	(obj:0)
x#15#3                                              1 	(obj:0)
x#16#6                                              1 	(obj:0)
x#17#4                                              1 	(obj:0)
x#18#1                                              1 	(obj:0)
x#19#5                                              1 	(obj:0)
x#20#3                                              1 	(obj:0)
z                                              83.732 	(obj:1)
